59100
13 18 19 16 14 2 -1 500 50 250 100 250 350 
18 19 16 2 8 5 15 20 17 -1 50 250 100 150 250 250 100 250 100 
2
1
3 -1 40 
9 -1 40 
3 -1 40 
9 -1 40 
1 -1 40 
6 -1 40 
7 -1 40 
12 3 -1 25 15 
9 1 6 -1 20 10 10 
7 3 5 -1 10 5 25 
8 -1 40 
8 -1 40 
8 -1 40 
8 -1 40 
8 -1 40 
8 -1 40 
8 5 -1 10 30 
5 -1 40 
5 -1 40 
5 -1 40 
5 -1 40 
5 15 -1 35 5 
15 -1 40 
15 -1 40 
15 17 -1 15 25 
17 -1 40 
17 10 -1 35 5 
10 4 -1 20 20 
4 11 -1 5 25 
2
1 -1 40 
1 9 -1 10 30 
9 -1 40 
9 3 -1 30 10 
3 -1 40 
3 -1 40 
3 7 -1 10 30 
12 7 -1 25 15 
